(set-info :smt-lib-version 2.6)
(set-info :category "crafted")
(set-logic QF_FFA)
(define-sort FF0 () (_ FiniteField 52435875175126190479447740508185965837690552500527637822603658699938581184513))
(declare-fun g () Bool)
(declare-fun e () Bool)
(declare-fun a () Bool)
(declare-fun f () Bool)
(declare-fun b () Bool)
(declare-fun c () Bool)
(declare-fun h () Bool)
(declare-fun d () Bool)
(declare-fun out () FF0)
(declare-fun _15 () FF0)
(declare-fun _8 () FF0)
(declare-fun _14 () FF0)
(declare-fun _9 () FF0)
(declare-fun _13 () FF0)
(declare-fun _10 () FF0)
(declare-fun _12 () FF0)
(declare-fun _7 () FF0)
(declare-fun _3 () FF0)
(declare-fun _2 () FF0)
(declare-fun _1 () FF0)
(declare-fun _5 () FF0)
(declare-fun _0 () FF0)
(declare-fun _6 () FF0)
(declare-fun _4 () FF0)
(assert 
  (let ((let0 g))
  (let ((let1 e))
  (let ((let2 (or let1 let0)))
  (let ((let3 a))
  (let ((let4 f))
  (let ((let5 (or let4 let3)))
  (let ((let6 b))
  (let ((let7 c))
  (let ((let8 (= let7 let6)))
  (let ((let9 h))
  (let ((let10 d))
  (let ((let11 (and let10 let9 let8 let5 let2)))
  (let ((let12 out))
  (let ((let13 (as ff1 FF0)))
  (let ((let14 (= let13 let12)))
  (let ((let15 (= let14 let11)))
  (let ((let16 (as ff0 FF0)))
  (let ((let17 (= let16 let12)))
  (let ((let18 (or let14 let17)))
  (let ((let19 (and let18 let15)))
  (let ((let20 _15))
  (let ((let21 (= let20 let12)))
  (let ((let22 _8))
  (let ((let23 _14))
  (let ((let24 (ff.mul let23 let22)))
  (let ((let25 (= let24 let20)))
  (let ((let26 _9))
  (let ((let27 _13))
  (let ((let28 (ff.mul let27 let26)))
  (let ((let29 (= let28 let23)))
  (let ((let30 (as ff52435875175126190479447740508185965837690552500527637822603658699938581184512 FF0)))
  (let ((let31 _10))
  (let ((let32 (ff.mul let31 let30)))
  (let ((let33 (ff.add let32 let13)))
  (let ((let34 _12))
  (let ((let35 (ff.mul let34 let33)))
  (let ((let36 (= let35 let27)))
  (let ((let37 _7))
  (let ((let38 _3))
  (let ((let39 (ff.mul let38 let37)))
  (let ((let40 (= let39 let34)))
  (let ((let41 _2))
  (let ((let42 _1))
  (let ((let43 (ff.mul let42 let30)))
  (let ((let44 (ff.add let43 let41)))
  (let ((let45 (ff.mul let44 let44)))
  (let ((let46 (= let45 let31)))
  (let ((let47 (ff.mul let26 let30)))
  (let ((let48 _5))
  (let ((let49 _0))
  (let ((let50 (ff.add let49 let48 let47)))
  (let ((let51 (ff.mul let48 let49)))
  (let ((let52 (= let51 let50)))
  (let ((let53 (ff.mul let22 let30)))
  (let ((let54 _6))
  (let ((let55 _4))
  (let ((let56 (ff.add let55 let54 let53)))
  (let ((let57 (ff.mul let55 let54)))
  (let ((let58 (= let57 let56)))
  (let ((let59 (ff.mul let37 let37)))
  (let ((let60 (= let59 let37)))
  (let ((let61 (ff.mul let54 let54)))
  (let ((let62 (= let61 let54)))
  (let ((let63 (ff.mul let48 let48)))
  (let ((let64 (= let63 let48)))
  (let ((let65 (ff.mul let55 let55)))
  (let ((let66 (= let65 let55)))
  (let ((let67 (ff.mul let38 let38)))
  (let ((let68 (= let67 let38)))
  (let ((let69 (ff.mul let41 let41)))
  (let ((let70 (= let69 let41)))
  (let ((let71 (ff.mul let42 let42)))
  (let ((let72 (= let71 let42)))
  (let ((let73 (ff.mul let49 let49)))
  (let ((let74 (= let73 let49)))
  (let ((let75 (and let74 let72 let70 let68 let66 let64 let62 let60 let58 let52 let46 let40 let36 let29 let25 let21)))
  (let ((let76 (ite let9 let13 let16)))
  (let ((let77 (= let37 let76)))
  (let ((let78 (ite let0 let13 let16)))
  (let ((let79 (= let54 let78)))
  (let ((let80 (ite let1 let13 let16)))
  (let ((let81 (= let55 let80)))
  (let ((let82 (ite let3 let13 let16)))
  (let ((let83 (= let49 let82)))
  (let ((let84 (ite let10 let13 let16)))
  (let ((let85 (= let38 let84)))
  (let ((let86 (ite let4 let13 let16)))
  (let ((let87 (= let48 let86)))
  (let ((let88 (ite let6 let13 let16)))
  (let ((let89 (= let42 let88)))
  (let ((let90 (ite let7 let13 let16)))
  (let ((let91 (= let41 let90)))
  (let ((let92 (and let91 let89 let87 let85 let83 let81 let79 let77)))
  (let ((let93 (and let92 let75)))
  (let ((let94 (=> let93 let19)))
  (let ((let95 (not let94)))
  let95
))))))))))))))))))))))))))))))))))))))))))))))))))))))))))))))))))))))))))))))))))))))))))))))))
)
(check-sat)
